NAME : X_38_seed_123_id_2
TYPE : CVRP
DIMENSION : 275
EDGE_WEIGHT_TYPE : EUC_2D
CAPACITY : 10
NODE_COORD_SECTION
1	146	576
2	131	435
3	774	757
4	883	108
5	103	399
6	146	384
7	39	413
8	645	760
9	827	32
10	830	140
11	199	410
12	798	794
13	136	446
14	800	761
15	889	779
16	785	751
17	183	475
18	648	798
19	839	747
20	823	128
21	731	747
22	88	443
23	848	648
24	149	361
25	80	502
26	120	451
27	887	126
28	803	758
29	830	741
30	139	413
31	147	416
32	730	708
33	146	410
34	783	788
35	838	599
36	718	817
37	905	43
38	172	416
39	900	120
40	33	558
41	132	438
42	158	402
43	53	479
44	133	448
45	827	123
46	97	387
47	939	99
48	124	586
49	778	761
50	99	373
51	985	153
52	798	51
53	818	147
54	253	453
55	189	360
56	873	80
57	943	211
58	76	391
59	86	395
60	779	233
61	912	812
62	811	745
63	787	766
64	918	123
65	710	749
66	156	417
67	876	163
68	999	282
69	302	326
70	804	746
71	153	443
72	775	702
73	183	509
74	651	747
75	159	444
76	801	741
77	124	369
78	816	642
79	171	368
80	913	125
81	716	774
82	853	207
83	845	125
84	800	768
85	139	462
86	853	111
87	767	743
88	892	120
89	880	119
90	712	704
91	164	344
92	796	119
93	262	467
94	928	613
95	69	450
96	154	439
97	137	490
98	836	198
99	59	379
100	116	482
101	39	438
102	861	88
103	85	480
104	822	756
105	710	699
106	921	26
107	877	247
108	41	354
109	83	473
110	136	481
111	199	444
112	825	163
113	753	735
114	685	787
115	201	616
116	267	498
117	97	297
118	752	130
119	899	112
120	907	119
121	837	179
122	797	190
123	855	109
124	152	446
125	123	458
126	739	794
127	103	464
128	98	298
129	113	519
130	175	342
131	787	728
132	882	171
133	910	90
134	770	772
135	118	487
136	693	772
137	776	836
138	75	391
139	891	117
140	758	764
141	684	750
142	547	848
143	835	177
144	39	416
145	100	403
146	144	455
147	955	52
148	866	83
149	148	488
150	873	64
151	837	40
152	157	465
153	964	179
154	60	484
155	736	632
156	876	180
157	207	438
158	176	444
159	65	524
160	95	418
161	878	63
162	771	733
163	825	687
164	109	427
165	618	284
166	210	211
167	772	764
168	878	63
169	213	286
170	820	774
171	757	628
172	129	387
173	946	92
174	197	540
175	770	804
176	797	689
177	870	125
178	770	796
179	118	378
180	731	31
181	921	42
182	853	53
183	771	786
184	883	102
185	128	441
186	172	479
187	911	67
188	119	412
189	918	94
190	825	723
191	856	93
192	243	286
193	175	497
194	187	529
195	126	430
196	898	226
197	110	428
198	759	721
199	107	434
200	170	422
201	134	408
202	203	494
203	106	370
204	761	598
205	893	82
206	134	333
207	941	59
208	169	317
209	928	167
210	189	410
211	640	430
212	774	771
213	753	941
214	119	427
215	57	586
216	721	834
217	26	480
218	120	486
219	927	38
220	288	339
221	152	469
222	853	270
223	798	770
224	86	416
225	123	439
226	817	629
227	34	453
228	751	693
229	676	717
230	139	435
231	116	444
232	909	81
233	84	346
234	881	56
235	730	799
236	83	436
237	677	872
238	180	353
239	809	756
240	690	768
241	140	432
242	851	838
243	737	577
244	816	731
245	885	727
246	580	672
247	795	249
248	185	467
249	789	687
250	75	435
251	732	736
252	166	323
253	153	343
254	822	62
255	788	731
256	782	565
257	248	371
258	969	875
259	175	464
260	788	651
261	751	800
262	773	645
263	905	197
264	953	712
265	754	730
266	710	735
267	923	138
268	867	116
269	120	535
270	638	32
271	149	434
272	682	693
273	853	84
274	168	498
275	766	772
DEMAND_SECTION
1	0
2	1
3	1
4	1
5	1
6	1
7	1
8	1
9	1
10	1
11	1
12	1
13	1
14	1
15	1
16	1
17	1
18	1
19	1
20	1
21	1
22	1
23	1
24	1
25	1
26	1
27	1
28	1
29	1
30	1
31	1
32	1
33	1
34	1
35	1
36	1
37	1
38	1
39	1
40	1
41	1
42	1
43	1
44	1
45	1
46	1
47	1
48	1
49	1
50	1
51	1
52	1
53	1
54	1
55	1
56	1
57	1
58	1
59	1
60	1
61	1
62	1
63	1
64	1
65	1
66	1
67	1
68	1
69	1
70	1
71	1
72	1
73	1
74	1
75	1
76	1
77	1
78	1
79	1
80	1
81	1
82	1
83	1
84	1
85	1
86	1
87	1
88	1
89	1
90	1
91	1
92	1
93	1
94	1
95	1
96	1
97	1
98	1
99	1
100	1
101	1
102	1
103	1
104	1
105	1
106	1
107	1
108	1
109	1
110	1
111	1
112	1
113	1
114	1
115	1
116	1
117	1
118	1
119	1
120	1
121	1
122	1
123	1
124	1
125	1
126	1
127	1
128	1
129	1
130	1
131	1
132	1
133	1
134	1
135	1
136	1
137	1
138	1
139	1
140	1
141	1
142	1
143	1
144	1
145	1
146	1
147	1
148	1
149	1
150	1
151	1
152	1
153	1
154	1
155	1
156	1
157	1
158	1
159	1
160	1
161	1
162	1
163	1
164	1
165	1
166	1
167	1
168	1
169	1
170	1
171	1
172	1
173	1
174	1
175	1
176	1
177	1
178	1
179	1
180	1
181	1
182	1
183	1
184	1
185	1
186	1
187	1
188	1
189	1
190	1
191	1
192	1
193	1
194	1
195	1
196	1
197	1
198	1
199	1
200	1
201	1
202	1
203	1
204	1
205	1
206	1
207	1
208	1
209	1
210	1
211	1
212	1
213	1
214	1
215	1
216	1
217	1
218	1
219	1
220	1
221	1
222	1
223	1
224	1
225	1
226	1
227	1
228	1
229	1
230	1
231	1
232	1
233	1
234	1
235	1
236	1
237	1
238	1
239	1
240	1
241	1
242	1
243	1
244	1
245	1
246	1
247	1
248	1
249	1
250	1
251	1
252	1
253	1
254	1
255	1
256	1
257	1
258	1
259	1
260	1
261	1
262	1
263	1
264	1
265	1
266	1
267	1
268	1
269	1
270	1
271	1
272	1
273	1
274	1
275	1
DEPOT_SECTION
1
-1
EOF
